$molecule
-3 9
--
4 9
Fe 1.6361773790 0.6936015239 0.2260731674
Fe -1.6361816732 -0.6935647992 0.2259420320
--
-7 1
N 0.0897506717 1.4838317143 -0.8032098029
C 0.1053451612 2.5568558223 -1.6174470899
Cl 3.2283567465 1.4806486291 -1.4744769928
N 1.9723413242 -1.7837895692 -1.5066418885
C 1.1968016542 -2.7427072451 -2.0534963797
N -3.1392559160 0.1295143434 1.2467738662
Cl -3.2284009987 -1.4802525882 -1.4747306713
N -1.9724222708 1.7842029463 -1.5061774615
N -1.1778794085 1.0366712682 -0.7555837251
C -1.1968936028 2.7432453005 -2.0528166075
Cl 0.0000199153 -0.0001631289 1.8321427645
N -0.0897990231 -1.4835976606 -0.8035442444
N 1.1778284388 -1.0364144513 -0.7558570068
C -0.1054246234 -2.5564169408 -1.6180576493
N -4.6136051199 0.3480955772 2.8563365803
C -4.8510934615 1.3098707011 1.9255938750
C -3.9261675643 1.1746913605 0.9046262704
N -3.5726001392 -0.3590440193 2.4275637817
H 1.0338437125 3.0616491253 -1.8343474217
H 1.6141960616 -3.4910080186 -2.7170777334
H -1.6143040241 3.4916973491 -2.7162163706
H -1.0339279705 -3.0611560624 -1.8350642480
H -5.6578805109 2.0279648229 2.0413986427
H -3.7662453213 1.7071816453 -0.0204084103
N 3.1392460742 -0.1298457698 1.2466298705
C 3.9262577800 -1.1747949213 0.9039967135
N 4.6135630468 -0.3490794820 2.8561119481
N 3.5725116216 0.3581915313 2.4276621215
C 4.8511655257 -1.3103905425 1.9249192485
H 3.7663681342 -1.7068835727 -0.0212715710
H 5.6580436897 -2.0284401968 2.0403750350
$end

$rem
	jobtype opt
	method wb97x-d
	 
	basis 6-31g
	scf_guess fragmo
	scf_print_frgm true
	scf_max_cycles 1500
	geom_opt_max_cycles 500
	diis_separate_errvec 1
$end

@@@

$molecule
	read
$end

$rem
	jobtype freq
	method wb97x-d
	 
	basis 6-31g
	scf_guess fragmo
	scf_max_cycles 1500
	isotopes 1
$end

$isotopes
	4 1
	0 0 0
	0 77 1
	0 87 1
	0 150 1
	0 298 1
$end


